(set-info :smt-lib-version 2.6)
(set-logic QF_NRA)
(set-info :source |
Generated by a component of the Ultimate program analysis framework [1] 
that implements a constraint-based synthesis of invariants [2].

This SMT script belongs to a set of SMT scripts that was generated by 
applying Ultimate to benchmarks [3] from the SV-COMP 2017 [4,5].

This script might _not_ contain all SMT commands that are used by 
Ultimate . In order to satisfy the restrictions of
the SMT-COMP we have to drop e.g., the commands for getting
values (resp. models), unsatisfiable cores and interpolants.

2017-05-01, Matthias Heizmann (heizmann@informatik.uni-freiburg.de)


[1] https://ultimate.informatik.uni-freiburg.de/
[2] Michael Colon, Sriram Sankaranarayanan, Henny Sipma: Linear Invariant 
Generation Using Non-linear Constraint Solving. CAV 2003: 420-432
[3] https://github.com/sosy-lab/sv-benchmarks
[4] Dirk Beyer: Software Verification with Validation of Results - 
(Report on SV-COMP 2017). TACAS (2) 2017: 331-349
[5] https://sv-comp.sosy-lab.org/2017/
|)
(set-info :license "https://creativecommons.org/licenses/by/4.0/")
(set-info :category "industrial")
(set-info :status unknown)
(declare-fun lp_0_0c () Real)
(declare-fun lp_0_0_ULTIMATE.start_v_rep_select_ULTIMATE.start_main_~a~4_ULTIMATE.start_main_~i~4__1 () Real)
(declare-fun lp_0_0_ULTIMATE.start_main_~i~4 () Real)
(declare-fun lp_0_0_ULTIMATE.start_main_~max~4 () Real)
(declare-fun lp_0_1c () Real)
(declare-fun lp_0_1_ULTIMATE.start_v_rep_select_ULTIMATE.start_main_~a~4_ULTIMATE.start_main_~i~4__1 () Real)
(declare-fun lp_0_1_ULTIMATE.start_main_~i~4 () Real)
(declare-fun lp_0_1_ULTIMATE.start_main_~max~4 () Real)
(declare-fun lp_0_2c () Real)
(declare-fun lp_0_2_ULTIMATE.start_v_rep_select_ULTIMATE.start_main_~a~4_ULTIMATE.start_main_~i~4__1 () Real)
(declare-fun lp_0_2_ULTIMATE.start_main_~i~4 () Real)
(declare-fun lp_0_2_ULTIMATE.start_main_~max~4 () Real)
(declare-fun motzkin_1926_0 () Real)
(declare-fun motzkin_1926_1 () Real)
(declare-fun motzkin_1926_2 () Real)
(declare-fun motzkin_1926_3 () Real)
(declare-fun motzkin_1926_4 () Real)
(declare-fun motzkin_1927_0 () Real)
(declare-fun motzkin_1927_1 () Real)
(declare-fun motzkin_1927_2 () Real)
(declare-fun motzkin_1927_3 () Real)
(declare-fun motzkin_1927_4 () Real)
(declare-fun motzkin_1928_0 () Real)
(declare-fun motzkin_1928_1 () Real)
(declare-fun motzkin_1928_2 () Real)
(declare-fun motzkin_1928_3 () Real)
(declare-fun motzkin_1928_4 () Real)
(assert (and (>= motzkin_1926_0 0.0) (>= motzkin_1926_1 0.0) (>= motzkin_1926_2 0.0) (>= motzkin_1926_3 0.0) (>= motzkin_1926_4 0.0) (= (+ motzkin_1926_0 (* motzkin_1926_1 (- 1.0)) (* motzkin_1926_4 (+ (* (- 1.0) lp_0_0_ULTIMATE.start_main_~i~4) 0.0))) 0.0) (= (+ motzkin_1926_2 (* motzkin_1926_3 (- 1.0)) (* motzkin_1926_4 (+ (* (- 1.0) lp_0_0_ULTIMATE.start_main_~max~4) 0.0))) 0.0) (= (* motzkin_1926_4 (+ (* (- 1.0) lp_0_0_ULTIMATE.start_v_rep_select_ULTIMATE.start_main_~a~4_ULTIMATE.start_main_~i~4__1) 0.0)) 0.0) (<= (* motzkin_1926_4 (+ (* (- 1.0) lp_0_0c) 0.0)) 0.0) (or (< 0.0 0.0) (> motzkin_1926_4 0.0)) (>= motzkin_1927_0 0.0) (>= motzkin_1927_1 0.0) (>= motzkin_1927_2 0.0) (>= motzkin_1927_3 0.0) (>= motzkin_1927_4 0.0) (= (+ motzkin_1927_0 (* motzkin_1927_1 (- 1.0)) (* motzkin_1927_4 (+ (* (- 1.0) lp_0_1_ULTIMATE.start_main_~i~4) 0.0))) 0.0) (= (+ motzkin_1927_2 (* motzkin_1927_3 (- 1.0)) (* motzkin_1927_4 (+ (* (- 1.0) lp_0_1_ULTIMATE.start_main_~max~4) 0.0))) 0.0) (= (* motzkin_1927_4 (+ (* (- 1.0) lp_0_1_ULTIMATE.start_v_rep_select_ULTIMATE.start_main_~a~4_ULTIMATE.start_main_~i~4__1) 0.0)) 0.0) (<= (* motzkin_1927_4 (+ (* (- 1.0) lp_0_1c) 0.0)) 0.0) (or (< 0.0 0.0) (> motzkin_1927_4 0.0)) (>= motzkin_1928_0 0.0) (>= motzkin_1928_1 0.0) (>= motzkin_1928_2 0.0) (>= motzkin_1928_3 0.0) (>= motzkin_1928_4 0.0) (= (+ motzkin_1928_0 (* motzkin_1928_1 (- 1.0)) (* motzkin_1928_4 (+ (* (- 1.0) lp_0_2_ULTIMATE.start_main_~i~4) 0.0))) 0.0) (= (+ motzkin_1928_2 (* motzkin_1928_3 (- 1.0)) (* motzkin_1928_4 (+ (* (- 1.0) lp_0_2_ULTIMATE.start_main_~max~4) 0.0))) 0.0) (= (* motzkin_1928_4 (+ (* (- 1.0) lp_0_2_ULTIMATE.start_v_rep_select_ULTIMATE.start_main_~a~4_ULTIMATE.start_main_~i~4__1) 0.0)) 0.0) (<= (* motzkin_1928_4 (+ (* (- 1.0) lp_0_2c) 0.0)) 0.0) (or (< 0.0 0.0) (> motzkin_1928_4 0.0))))
(declare-fun motzkin_1929_0 () Real)
(declare-fun motzkin_1929_1 () Real)
(declare-fun motzkin_1929_2 () Real)
(declare-fun motzkin_1929_3 () Real)
(declare-fun motzkin_1929_4 () Real)
(declare-fun motzkin_1929_5 () Real)
(declare-fun motzkin_1929_6 () Real)
(declare-fun motzkin_1929_7 () Real)
(declare-fun motzkin_1929_8 () Real)
(declare-fun motzkin_1929_9 () Real)
(declare-fun motzkin_1930_0 () Real)
(declare-fun motzkin_1930_1 () Real)
(declare-fun motzkin_1930_2 () Real)
(declare-fun motzkin_1930_3 () Real)
(declare-fun motzkin_1930_4 () Real)
(declare-fun motzkin_1930_5 () Real)
(declare-fun motzkin_1930_6 () Real)
(declare-fun motzkin_1930_7 () Real)
(declare-fun motzkin_1930_8 () Real)
(declare-fun motzkin_1930_9 () Real)
(declare-fun motzkin_1931_0 () Real)
(declare-fun motzkin_1931_1 () Real)
(declare-fun motzkin_1931_2 () Real)
(declare-fun motzkin_1931_3 () Real)
(declare-fun motzkin_1931_4 () Real)
(declare-fun motzkin_1931_5 () Real)
(declare-fun motzkin_1931_6 () Real)
(declare-fun motzkin_1931_7 () Real)
(declare-fun motzkin_1931_8 () Real)
(declare-fun motzkin_1931_9 () Real)
(assert (and (>= motzkin_1929_0 0.0) (>= motzkin_1929_1 0.0) (>= motzkin_1929_2 0.0) (>= motzkin_1929_3 0.0) (>= motzkin_1929_4 0.0) (>= motzkin_1929_5 0.0) (>= motzkin_1929_6 0.0) (>= motzkin_1929_7 0.0) (>= motzkin_1929_8 0.0) (>= motzkin_1929_9 0.0) (= (+ (* motzkin_1929_0 (- 1.0)) motzkin_1929_5 (* motzkin_1929_6 (+ (* (- 1.0) lp_0_0_ULTIMATE.start_main_~i~4) 0.0))) 0.0) (= (+ motzkin_1929_0 (* motzkin_1929_1 (- 1.0)) (* motzkin_1929_5 (- 1.0)) (* motzkin_1929_7 (+ (* 1.0 lp_0_0_ULTIMATE.start_main_~i~4) 0.0)) (* motzkin_1929_8 (+ (* 1.0 lp_0_1_ULTIMATE.start_main_~i~4) 0.0)) (* motzkin_1929_9 (+ (* 1.0 lp_0_2_ULTIMATE.start_main_~i~4) 0.0))) 0.0) (= (+ (* motzkin_1929_2 (- 1.0)) (* motzkin_1929_7 (+ (* 1.0 lp_0_0_ULTIMATE.start_main_~max~4) 0.0)) (* motzkin_1929_8 (+ (* 1.0 lp_0_1_ULTIMATE.start_main_~max~4) 0.0)) (* motzkin_1929_9 (+ (* 1.0 lp_0_2_ULTIMATE.start_main_~max~4) 0.0))) 0.0) (= (+ motzkin_1929_2 (* motzkin_1929_3 (- 1.0)) motzkin_1929_4 (* motzkin_1929_7 (+ (* 1.0 lp_0_0_ULTIMATE.start_v_rep_select_ULTIMATE.start_main_~a~4_ULTIMATE.start_main_~i~4__1) 0.0)) (* motzkin_1929_8 (+ (* 1.0 lp_0_1_ULTIMATE.start_v_rep_select_ULTIMATE.start_main_~a~4_ULTIMATE.start_main_~i~4__1) 0.0)) (* motzkin_1929_9 (+ (* 1.0 lp_0_2_ULTIMATE.start_v_rep_select_ULTIMATE.start_main_~a~4_ULTIMATE.start_main_~i~4__1) 0.0))) 0.0) (= (+ motzkin_1929_3 (* motzkin_1929_4 (- 1.0)) (* motzkin_1929_6 (+ (* (- 1.0) lp_0_0_ULTIMATE.start_main_~max~4) 0.0))) 0.0) (= (* motzkin_1929_6 (+ (* (- 1.0) lp_0_0_ULTIMATE.start_v_rep_select_ULTIMATE.start_main_~a~4_ULTIMATE.start_main_~i~4__1) 0.0)) 0.0) (<= (+ motzkin_1929_0 (* motzkin_1929_1 99999.0) (* motzkin_1929_2 (- 1.0)) (* motzkin_1929_5 (- 1.0)) (* motzkin_1929_6 (+ (* (- 1.0) lp_0_0c) 0.0)) (* motzkin_1929_7 (+ (* 1.0 lp_0_0c) 0.0)) (* motzkin_1929_8 (+ (* 1.0 lp_0_1c) 0.0)) (* motzkin_1929_9 (+ (* 1.0 lp_0_2c) 0.0))) 0.0) (or (< (+ motzkin_1929_0 (* motzkin_1929_1 99999.0) (* motzkin_1929_2 (- 1.0)) (* motzkin_1929_5 (- 1.0)) (* motzkin_1929_7 (+ (* 1.0 lp_0_0c) 0.0)) (* motzkin_1929_8 (+ (* 1.0 lp_0_1c) 0.0)) (* motzkin_1929_9 (+ (* 1.0 lp_0_2c) 0.0))) 0.0) (> motzkin_1929_6 0.0)) (>= motzkin_1930_0 0.0) (>= motzkin_1930_1 0.0) (>= motzkin_1930_2 0.0) (>= motzkin_1930_3 0.0) (>= motzkin_1930_4 0.0) (>= motzkin_1930_5 0.0) (>= motzkin_1930_6 0.0) (>= motzkin_1930_7 0.0) (>= motzkin_1930_8 0.0) (>= motzkin_1930_9 0.0) (= (+ (* motzkin_1930_0 (- 1.0)) motzkin_1930_5 (* motzkin_1930_6 (+ (* (- 1.0) lp_0_1_ULTIMATE.start_main_~i~4) 0.0))) 0.0) (= (+ motzkin_1930_0 (* motzkin_1930_1 (- 1.0)) (* motzkin_1930_5 (- 1.0)) (* motzkin_1930_7 (+ (* 1.0 lp_0_0_ULTIMATE.start_main_~i~4) 0.0)) (* motzkin_1930_8 (+ (* 1.0 lp_0_1_ULTIMATE.start_main_~i~4) 0.0)) (* motzkin_1930_9 (+ (* 1.0 lp_0_2_ULTIMATE.start_main_~i~4) 0.0))) 0.0) (= (+ (* motzkin_1930_2 (- 1.0)) (* motzkin_1930_7 (+ (* 1.0 lp_0_0_ULTIMATE.start_main_~max~4) 0.0)) (* motzkin_1930_8 (+ (* 1.0 lp_0_1_ULTIMATE.start_main_~max~4) 0.0)) (* motzkin_1930_9 (+ (* 1.0 lp_0_2_ULTIMATE.start_main_~max~4) 0.0))) 0.0) (= (+ motzkin_1930_2 (* motzkin_1930_3 (- 1.0)) motzkin_1930_4 (* motzkin_1930_7 (+ (* 1.0 lp_0_0_ULTIMATE.start_v_rep_select_ULTIMATE.start_main_~a~4_ULTIMATE.start_main_~i~4__1) 0.0)) (* motzkin_1930_8 (+ (* 1.0 lp_0_1_ULTIMATE.start_v_rep_select_ULTIMATE.start_main_~a~4_ULTIMATE.start_main_~i~4__1) 0.0)) (* motzkin_1930_9 (+ (* 1.0 lp_0_2_ULTIMATE.start_v_rep_select_ULTIMATE.start_main_~a~4_ULTIMATE.start_main_~i~4__1) 0.0))) 0.0) (= (+ motzkin_1930_3 (* motzkin_1930_4 (- 1.0)) (* motzkin_1930_6 (+ (* (- 1.0) lp_0_1_ULTIMATE.start_main_~max~4) 0.0))) 0.0) (= (* motzkin_1930_6 (+ (* (- 1.0) lp_0_1_ULTIMATE.start_v_rep_select_ULTIMATE.start_main_~a~4_ULTIMATE.start_main_~i~4__1) 0.0)) 0.0) (<= (+ motzkin_1930_0 (* motzkin_1930_1 99999.0) (* motzkin_1930_2 (- 1.0)) (* motzkin_1930_5 (- 1.0)) (* motzkin_1930_6 (+ (* (- 1.0) lp_0_1c) 0.0)) (* motzkin_1930_7 (+ (* 1.0 lp_0_0c) 0.0)) (* motzkin_1930_8 (+ (* 1.0 lp_0_1c) 0.0)) (* motzkin_1930_9 (+ (* 1.0 lp_0_2c) 0.0))) 0.0) (or (< (+ motzkin_1930_0 (* motzkin_1930_1 99999.0) (* motzkin_1930_2 (- 1.0)) (* motzkin_1930_5 (- 1.0)) (* motzkin_1930_7 (+ (* 1.0 lp_0_0c) 0.0)) (* motzkin_1930_8 (+ (* 1.0 lp_0_1c) 0.0)) (* motzkin_1930_9 (+ (* 1.0 lp_0_2c) 0.0))) 0.0) (> motzkin_1930_6 0.0)) (>= motzkin_1931_0 0.0) (>= motzkin_1931_1 0.0) (>= motzkin_1931_2 0.0) (>= motzkin_1931_3 0.0) (>= motzkin_1931_4 0.0) (>= motzkin_1931_5 0.0) (>= motzkin_1931_6 0.0) (>= motzkin_1931_7 0.0) (>= motzkin_1931_8 0.0) (>= motzkin_1931_9 0.0) (= (+ (* motzkin_1931_0 (- 1.0)) motzkin_1931_5 (* motzkin_1931_6 (+ (* (- 1.0) lp_0_2_ULTIMATE.start_main_~i~4) 0.0))) 0.0) (= (+ motzkin_1931_0 (* motzkin_1931_1 (- 1.0)) (* motzkin_1931_5 (- 1.0)) (* motzkin_1931_7 (+ (* 1.0 lp_0_0_ULTIMATE.start_main_~i~4) 0.0)) (* motzkin_1931_8 (+ (* 1.0 lp_0_1_ULTIMATE.start_main_~i~4) 0.0)) (* motzkin_1931_9 (+ (* 1.0 lp_0_2_ULTIMATE.start_main_~i~4) 0.0))) 0.0) (= (+ (* motzkin_1931_2 (- 1.0)) (* motzkin_1931_7 (+ (* 1.0 lp_0_0_ULTIMATE.start_main_~max~4) 0.0)) (* motzkin_1931_8 (+ (* 1.0 lp_0_1_ULTIMATE.start_main_~max~4) 0.0)) (* motzkin_1931_9 (+ (* 1.0 lp_0_2_ULTIMATE.start_main_~max~4) 0.0))) 0.0) (= (+ motzkin_1931_2 (* motzkin_1931_3 (- 1.0)) motzkin_1931_4 (* motzkin_1931_7 (+ (* 1.0 lp_0_0_ULTIMATE.start_v_rep_select_ULTIMATE.start_main_~a~4_ULTIMATE.start_main_~i~4__1) 0.0)) (* motzkin_1931_8 (+ (* 1.0 lp_0_1_ULTIMATE.start_v_rep_select_ULTIMATE.start_main_~a~4_ULTIMATE.start_main_~i~4__1) 0.0)) (* motzkin_1931_9 (+ (* 1.0 lp_0_2_ULTIMATE.start_v_rep_select_ULTIMATE.start_main_~a~4_ULTIMATE.start_main_~i~4__1) 0.0))) 0.0) (= (+ motzkin_1931_3 (* motzkin_1931_4 (- 1.0)) (* motzkin_1931_6 (+ (* (- 1.0) lp_0_2_ULTIMATE.start_main_~max~4) 0.0))) 0.0) (= (* motzkin_1931_6 (+ (* (- 1.0) lp_0_2_ULTIMATE.start_v_rep_select_ULTIMATE.start_main_~a~4_ULTIMATE.start_main_~i~4__1) 0.0)) 0.0) (<= (+ motzkin_1931_0 (* motzkin_1931_1 99999.0) (* motzkin_1931_2 (- 1.0)) (* motzkin_1931_5 (- 1.0)) (* motzkin_1931_6 (+ (* (- 1.0) lp_0_2c) 0.0)) (* motzkin_1931_7 (+ (* 1.0 lp_0_0c) 0.0)) (* motzkin_1931_8 (+ (* 1.0 lp_0_1c) 0.0)) (* motzkin_1931_9 (+ (* 1.0 lp_0_2c) 0.0))) 0.0) (or (< (+ motzkin_1931_0 (* motzkin_1931_1 99999.0) (* motzkin_1931_2 (- 1.0)) (* motzkin_1931_5 (- 1.0)) (* motzkin_1931_7 (+ (* 1.0 lp_0_0c) 0.0)) (* motzkin_1931_8 (+ (* 1.0 lp_0_1c) 0.0)) (* motzkin_1931_9 (+ (* 1.0 lp_0_2c) 0.0))) 0.0) (> motzkin_1931_6 0.0))))
(declare-fun motzkin_1932_0 () Real)
(declare-fun motzkin_1932_1 () Real)
(declare-fun motzkin_1932_2 () Real)
(declare-fun motzkin_1932_3 () Real)
(declare-fun motzkin_1932_4 () Real)
(declare-fun motzkin_1932_5 () Real)
(declare-fun motzkin_1932_6 () Real)
(declare-fun motzkin_1932_7 () Real)
(declare-fun motzkin_1932_8 () Real)
(declare-fun motzkin_1932_9 () Real)
(declare-fun motzkin_1932_10 () Real)
(assert (and (>= motzkin_1932_0 0.0) (>= motzkin_1932_1 0.0) (>= motzkin_1932_2 0.0) (>= motzkin_1932_3 0.0) (>= motzkin_1932_4 0.0) (>= motzkin_1932_5 0.0) (>= motzkin_1932_6 0.0) (>= motzkin_1932_7 0.0) (>= motzkin_1932_8 0.0) (>= motzkin_1932_9 0.0) (>= motzkin_1932_10 0.0) (= motzkin_1932_0 0.0) (= (+ (* motzkin_1932_0 (- 1.0)) (* motzkin_1932_8 (+ (* 1.0 lp_0_0_ULTIMATE.start_main_~max~4) 0.0)) (* motzkin_1932_9 (+ (* 1.0 lp_0_1_ULTIMATE.start_main_~max~4) 0.0)) (* motzkin_1932_10 (+ (* 1.0 lp_0_2_ULTIMATE.start_main_~max~4) 0.0))) 0.0) (= (+ (* motzkin_1932_1 (- 1.0)) motzkin_1932_2 (* motzkin_1932_3 (- 1.0)) motzkin_1932_5) 0.0) (= (+ motzkin_1932_1 (* motzkin_1932_5 (- 1.0))) 0.0) (= (+ motzkin_1932_4 (* motzkin_1932_6 (- 1.0))) 0.0) (= (+ motzkin_1932_7 (* motzkin_1932_8 (+ (* 1.0 lp_0_0_ULTIMATE.start_main_~i~4) 0.0)) (* motzkin_1932_9 (+ (* 1.0 lp_0_1_ULTIMATE.start_main_~i~4) 0.0)) (* motzkin_1932_10 (+ (* 1.0 lp_0_2_ULTIMATE.start_main_~i~4) 0.0))) 0.0) (= (+ (* motzkin_1932_8 (+ (* 1.0 lp_0_0_ULTIMATE.start_v_rep_select_ULTIMATE.start_main_~a~4_ULTIMATE.start_main_~i~4__1) 0.0)) (* motzkin_1932_9 (+ (* 1.0 lp_0_1_ULTIMATE.start_v_rep_select_ULTIMATE.start_main_~a~4_ULTIMATE.start_main_~i~4__1) 0.0)) (* motzkin_1932_10 (+ (* 1.0 lp_0_2_ULTIMATE.start_v_rep_select_ULTIMATE.start_main_~a~4_ULTIMATE.start_main_~i~4__1) 0.0))) 0.0) (<= (+ (* motzkin_1932_0 (- 1.0)) (* motzkin_1932_7 (- 100000.0)) (* motzkin_1932_8 (+ (* 1.0 lp_0_0c) 0.0)) (* motzkin_1932_9 (+ (* 1.0 lp_0_1c) 0.0)) (* motzkin_1932_10 (+ (* 1.0 lp_0_2c) 0.0))) 0.0) (or (< (+ (* motzkin_1932_0 (- 1.0)) (* motzkin_1932_7 (- 100000.0)) (* motzkin_1932_8 (+ (* 1.0 lp_0_0c) 0.0)) (* motzkin_1932_9 (+ (* 1.0 lp_0_1c) 0.0)) (* motzkin_1932_10 (+ (* 1.0 lp_0_2c) 0.0))) 0.0) (> 0.0 0.0))))
(check-sat)
(exit)
